(declare-fun x1_ack!1339 () (_ BitVec 64))
(declare-fun x2_ack!1337 () (_ BitVec 64))
(declare-fun y2_ack!1338 () (_ BitVec 64))
(assert (not (fp.eq ((_ to_fp 11 53) x1_ack!1339) ((_ to_fp 11 53) #x0000000000000000))))
(assert (fp.eq ((_ to_fp 11 53) x2_ack!1337) ((_ to_fp 11 53) #x3ff0000000000000)))
(assert (not (fp.eq ((_ to_fp 11 53) y2_ack!1338) ((_ to_fp 11 53) #x0000000000000000))))
(assert (fp.eq ((_ to_fp 11 53) x2_ack!1337) ((_ to_fp 11 53) #xbff0000000000000)))

(check-sat)
(exit)
